# Solution for model r5_t27_m0_9 Batch Number: 5
# Finished Task: 24 / 27
# Makespan: 926.0, Total Distance: 604.0, Total Time: 1.4551
# R O S F Batch
0 0 9 0.0 0.0 -1
1 1 25 0.0 0.0 -1
2 2 31 0.0 0.0 -1
3 3 15 0.0 0.0 -1
4 4 13 0.0 0.0 -1
5 -1 -1 -1.0 -1.0 0
6 -1 -1 -1.0 -1.0 2
7 4 26 411.0 440.0 0
8 3 12 362.0 382.0 0
9 0 29 578.0 604.0 0
10 -1 -1 -1.0 -1.0 4
11 3 -1 739.0 768.0 1
12 3 11 394.0 421.0 0
13 4 20 274.0 306.0 0
14 1 30 752.0 773.0 3
15 3 8 306.0 333.0 0
16 0 17 706.0 742.0 2
17 0 -1 742.0 773.0 3
18 1 14 703.0 729.0 3
19 1 18 618.0 649.0 2
20 4 7 327.0 358.0 0
21 4 23 550.0 576.0 0
22 1 -1 874.0 894.0 4
23 4 28 604.0 629.0 0
24 2 -1 672.0 703.0 3
25 1 19 548.0 578.0 0
26 4 21 480.0 507.0 0
27 4 -1 899.0 926.0 4
28 4 27 707.0 739.0 1
29 0 16 613.0 633.0 1
30 1 22 791.0 828.0 4
31 2 24 611.0 646.0 0
